size = 20;
mines_count = 100;
fields = array2d(1..size, 1..size, [-1,-1,9,-1,9,1,1,9,1,0,0,1,9,-1,-1,-1,-1,-1,-1,-1,-1,-1,-1,-1,-1,2,1,1,1,1,2,3,-1,-1,2,-1,-1,-1,9,9,9,-1,-1,-1,9,2,1,1,0,2,9,9,-1,9,-1,9,-1,-1,-1,-1,-1,-1,9,-1,-1,5,9,3,1,3,9,-1,-1,-1,9,9,-1,-1,-1,-1,-1,-1,-1,9,9,9,9,9,3,4,9,9,-1,-1,-1,9,3,9,-1,-1,9,-1,9,4,4,3,3,3,9,9,4,9,9,3,9,-1,-1,-1,-1,-1,1,3,-1,9,2,0,0,1,2,2,2,2,2,3,9,-1,9,9,-1,-1,1,3,9,9,3,0,0,0,0,0,0,0,0,1,-1,-1,-1,9,-1,-1,1,9,9,9,3,0,0,0,0,0,1,1,1,1,-1,9,2,-1,-1,-1,1,2,4,9,2,0,0,0,0,1,3,9,2,1,9,-1,-1,-1,-1,-1,0,0,1,1,2,1,1,0,1,3,9,9,3,2,-1,-1,9,-1,-1,-1,0,0,0,1,3,9,2,0,2,9,9,-1,-1,9,-1,-1,9,9,-1,-1,0,0,0,1,9,9,2,0,2,9,9,-1,-1,-1,9,-1,9,-1,-1,9,1,2,2,3,3,2,1,1,3,4,-1,-1,-1,9,-1,-1,-1,-1,-1,-1,9,3,9,9,1,0,1,2,9,9,3,9,-1,9,-1,-1,-1,-1,-1,-1,1,4,9,6,4,2,3,9,4,3,9,3,-1,-1,9,-1,-1,-1,9,9,2,4,9,9,9,9,3,9,2,1,3,9,-1,-1,-1,-1,9,-1,-1,-1,9,9,4,9,-1,4,3,1,1,0,3,9,9,-1,-1,9,9,-1,-1,-1,-1,-1,-1,-1,9,9,1,0,0,1,4,9,-1,-1,-1,-1,-1,-1,9,-1,-1,-1,-1,-1,-1,2,1,0,0,1,9,9,9,-1,9,-1,-1,-1,-1,9,]);
x = 0;
y = 0;
